161344 50 4950 97602 177176 0.98
166156 22 2178 43239 176982 0.97
160822 39 3861 76392 175558 0.93
164358 36 3564 70137 178624 0.98
162898 27 2673 52094 176812 0.99
164660 31 3069 60441 178914 0.98
166534 20 1980 38571 178850 1
162866 34 3366 66888 179416 0.99
163054 36 3564 70203 179868 0.99
164108 27 2673 53112 177576 0.97
